<?xml version = "1.0" encoding="UTF-8" standalone="yes"?>
<CPLEXSolution version="1.2">
 <header
   problemName="1_rho__E_4_2_2"
   solutionName="incumbent"
   solutionIndex="-1"
   objectiveValue="4"
   solutionTypeValue="3"
   solutionTypeString="primal"
   solutionStatusValue="101"
   solutionStatusString="integer optimal solution"
   solutionMethodString="mip"
   primalFeasible="1"
   dualFeasible="1"
   MIPNodes="0"
   MIPIterations="3"
   writeLevel="1"/>
 <quality
   epInt="1.0000000000000001e-05"
   epRHS="9.9999999999999995e-07"
   maxIntInfeas="0"
   maxPrimalInfeas="0"
   maxX="4"
   maxSlack="1"/>
 <linearConstraints>
  <constraint name="R_def" index="0" slack="0"/>
  <constraint name="val_cible" index="1" slack="0"/>
  <constraint name="BkI_12_0" index="2" slack="0"/>
  <constraint name="BkI_12_1" index="3" slack="0"/>
  <constraint name="BkI_10_0" index="4" slack="0"/>
  <constraint name="BkI_10_1" index="5" slack="0"/>
  <constraint name="BkI_6_0" index="6" slack="0"/>
  <constraint name="BkI_6_1" index="7" slack="0"/>
  <constraint name="BkI_9_0" index="8" slack="0"/>
  <constraint name="BkI_9_1" index="9" slack="0"/>
  <constraint name="BkI_5_0" index="10" slack="0"/>
  <constraint name="BkI_5_1" index="11" slack="0"/>
  <constraint name="BkI_3_0" index="12" slack="0"/>
  <constraint name="BkI_3_1" index="13" slack="0"/>
  <constraint name="QstargeqQ1" index="14" slack="-1"/>
  <constraint name="QstargeqQ2" index="15" slack="-1"/>
  <constraint name="QstargeqQ3" index="16" slack="0"/>
  <constraint name="QstargeqQ4" index="17" slack="-1"/>
  <constraint name="QstargeqQ5" index="18" slack="0"/>
  <constraint name="QstargeqQ6" index="19" slack="0"/>
  <constraint name="QstargeqQ7" index="20" slack="-1"/>
 </linearConstraints>
 <variables>
  <variable name="R" index="0" value="4"/>
  <variable name="Q0000" index="1" value="1"/>
  <variable name="Q0001" index="2" value="0"/>
  <variable name="Q0010" index="3" value="0"/>
  <variable name="Q0011" index="4" value="1"/>
  <variable name="Q0100" index="5" value="0"/>
  <variable name="Q0101" index="6" value="1"/>
  <variable name="Q0110" index="7" value="1"/>
  <variable name="Q0111" index="8" value="0"/>
 </variables>
 <objectiveValues>
  <objective index="0" name="" value="4"/>
 </objectiveValues>
</CPLEXSolution>
